c ren 1 -> 1
c ren 2 -> 2
c ren 3 -> 3
c ren 4 -> 4
c ren 5 -> 5
c ren 6 -> 6
c ren 7 -> 7
c ren 8 -> 8
c ren 9 -> 9
c ren 10 -> 10
c ren 11 -> 11
c ren 12 -> 12
c ren 13 -> 13
c ren 14 -> 14
c ren 15 -> 15
c ren 16 -> 16
c ren 17 -> 17
c ren 18 -> 18
c ren 19 -> 19
c ren 20 -> 20
c ren 21 -> 21
c ren 22 -> 22
c ren 23 -> 23
c ren 24 -> 24
c ren 25 -> 25
c ren 26 -> 26
c ren 27 -> 27
c ren 28 -> 28
c ren 29 -> 29
c ren 30 -> 30
c ren 31 -> 31
c ren 32 -> 32
c ren 33 -> 33
c ren 34 -> 34
c ren 35 -> 35
c ren 36 -> 36
c ren 37 -> 37
c ren 38 -> 38
c ren 39 -> 39
c ren 40 -> 40
c ren 41 -> 41
c ren 44 -> 42
c ren 60 -> 43
c ren 69 -> 44
c ren 78 -> 45
c ren 81 -> 46
c ren 84 -> 47
c ren 97 -> 48
c ren 100 -> 49
c ren 103 -> 50
c ren 115 -> 51
c ren 118 -> 52
c ren 134 -> 53
c ren 143 -> 54
c ren 152 -> 55
c ren 156 -> 56
c ren 159 -> 57
c ren 172 -> 58
c ren 175 -> 59
c ren 178 -> 60
c ren 191 -> 61
c ren 196 -> 62
c ren 212 -> 63
c ren 221 -> 64
c ren 230 -> 65
c ren 234 -> 66
c ren 250 -> 67
c ren 254 -> 68
c ren 270 -> 69
c ren 286 -> 70
c ren 305 -> 71
c ren 324 -> 72
c ren 343 -> 73
c ren 380 -> 74
c ren 399 -> 75
c ren 418 -> 76
c ren 437 -> 77
c ren 454 -> 78
c ren 455 -> 79
c ren 456 -> 80
c ren 457 -> 81
c ren 458 -> 82
c ren 459 -> 83
c ren 460 -> 84
c ren 461 -> 85
c ren 462 -> 86
c ren 463 -> 87
c ren 464 -> 88
c ren 517 -> 89
c ren 574 -> 90
c ren 593 -> 91
c ren 688 -> 92
c ren 707 -> 93
c ren 726 -> 94
c ren 745 -> 95
c ren 782 -> 96
c ren 801 -> 97
c ren 820 -> 98
c ren 839 -> 99
c ren 888 -> 100
c ren 889 -> 101
c ren 890 -> 102
c ren 891 -> 103
c ren 892 -> 104
p cnf 104 1348
a 1 2 3 4 5 6 7 8 9 10 11 12 13 14 15 16 17 18 19 20 21 22 23 24 25 26 27 28 29 30 31 32 33 34 35 36 37 38 39 40 41 81 82 83 84 85 86 87 88 0
d 78 81 82 83 84 85 86 87 88 0
d 79 81 82 83 84 0
d 80 85 86 87 88 0
e 42 43 44 45 46 47 48 49 50 51 52 53 54 55 56 57 58 59 60 61 62 63 64 65 66 67 68 69 70 71 72 73 74 75 76 77 89 90 91 92 93 94 95 96 97 98 99 100 101 102 103 104 0
1 5 -42 0
1 -5 42 0
-1 5 42 0
-1 -5 -42 0
-9 -13 -33 -41 -42 -43 44 45 0
9 -13 -33 -41 42 -43 44 45 0
-9 -13 -33 -41 -42 -43 -44 -45 0
-9 13 -33 -41 42 -43 44 45 0
9 -13 -33 -41 42 -43 -44 -45 0
-9 -13 -33 -41 -42 43 44 -45 0
9 -13 33 -42 -43 44 45 0
9 -13 -33 -41 42 43 44 -45 0
9 -13 33 -42 -43 -44 -45 0
-9 -13 33 -42 43 -44 -45 0
9 -13 33 42 43 -44 -45 0
9 -13 33 -42 43 44 -45 0
9 -13 41 42 -43 -44 45 0
9 -13 33 42 -43 -44 45 0
-17 -18 19 -20 43 0
17 -18 -19 20 -43 0
-17 -18 19 20 -43 0
-17 18 -19 20 -43 0
17 -18 -19 -20 43 0
17 18 -19 20 43 0
17 18 19 20 -43 0
17 18 -19 -20 -43 0
17 -18 19 -20 -43 0
17 18 19 -20 43 0
-17 18 19 -20 -43 0
-17 -18 -19 -20 -43 0
-17 -18 -19 20 43 0
17 -18 19 20 43 0
-9 -13 -33 -41 42 -43 44 -45 0
-9 -13 33 -42 -43 -44 45 0
-17 18 -19 -20 43 0
-9 -13 41 -42 -43 -44 45 0
-21 -22 23 -24 44 0
21 -22 -23 24 -44 0
-21 -22 23 24 -44 0
-21 22 -23 24 -44 0
21 -22 -23 -24 44 0
21 22 -23 24 44 0
21 22 23 24 -44 0
21 22 -23 -24 -44 0
21 -22 23 -24 -44 0
21 22 23 -24 44 0
-21 22 23 -24 -44 0
-21 -22 -23 -24 -44 0
-21 -22 -23 24 44 0
21 -22 23 24 44 0
9 13 -33 -41 -42 43 -44 45 0
-9 -13 33 -42 -43 44 -45 0
-21 22 -23 -24 44 0
9 13 -33 -41 -42 -43 44 45 0
9 -13 41 42 43 -44 -45 0
9 -13 -33 -41 -42 -43 44 -45 0
-9 -13 33 42 43 -44 45 0
-9 13 -33 -41 42 43 -44 45 0
9 -13 41 -42 43 -44 45 0
9 -13 41 -42 43 44 -45 0
9 -13 41 -42 -43 44 45 0
9 -13 41 42 -43 44 -45 0
-9 13 -33 -41 42 -43 -44 -45 0
-9 -13 33 42 -43 -44 -45 0
9 -13 41 42 43 44 45 0
9 -13 -33 -41 -42 43 -44 -45 0
9 -13 41 -42 -43 -44 -45 0
-9 -13 41 -42 43 44 45 0
-9 13 -33 -41 -42 43 -44 -45 0
-9 13 33 42 43 44 45 0
9 -13 -33 -41 -42 -43 -44 45 0
-9 13 -33 -41 -42 -43 44 -45 0
17 21 -46 0
17 -21 46 0
-9 13 33 -42 -43 -44 -45 0
-17 21 46 0
-17 -21 -46 0
-9 13 33 -42 43 -44 45 0
25 29 -47 0
25 -29 47 0
-9 13 41 -42 43 44 -45 0
-25 29 47 0
-25 -29 -47 0
-9 13 41 -42 -43 -44 -45 0
-37 -41 -46 -47 78 89 0
-37 -41 46 -47 -78 89 0
-37 -41 -46 -47 -48 -49 50 51 0
-37 -41 -46 47 -78 89 0
-37 -41 46 -47 48 -49 50 51 0
-37 -41 -46 -47 48 49 -50 -51 0
37 -46 -47 -48 49 -50 -51 0
-37 -41 46 -47 -48 -49 50 -51 0
-1 -2 3 -4 48 0
1 -2 -3 4 -48 0
41 46 -47 -48 49 -50 51 0
-1 -2 3 4 -48 0
-1 2 -3 4 -48 0
41 46 -47 48 49 -50 -51 0
1 -2 -3 -4 48 0
1 2 -3 4 48 0
-1 2 3 4 48 0
1 2 3 4 -48 0
1 2 -3 -4 -48 0
41 46 -47 -48 -49 -50 -51 0
1 -2 3 -4 -48 0
1 2 3 -4 48 0
41 -46 -47 -48 49 50 51 0
-1 2 3 -4 -48 0
-1 -2 -3 -4 -48 0
41 -46 -47 48 49 50 -51 0
-1 -2 -3 4 48 0
1 -2 3 4 48 0
-37 -41 46 47 -78 -89 0
41 46 -47 -48 49 50 -51 0
41 -46 -47 48 -49 -50 -51 0
41 46 -47 48 49 50 51 0
-1 2 -3 -4 48 0
41 46 -47 48 -49 -50 51 0
-37 -41 46 47 78 89 0
5 6 -49 0
5 -6 49 0
-37 -41 46 47 -48 -49 50 51 0
-37 -41 46 47 48 -49 50 -51 0
-5 6 49 0
-37 -41 -46 47 48 -49 50 51 0
-5 -6 -49 0
-37 -41 -46 -47 -78 -89 0
-37 -41 -46 47 78 -89 0
7 8 -50 0
7 -8 50 0
-37 -41 -46 47 -48 49 -50 -51 0
-37 -41 -46 47 48 49 -50 51 0
-7 8 50 0
-37 -41 -46 47 48 -49 -50 -51 0
-7 -8 -50 0
-37 -41 46 -47 78 -89 0
-37 -41 -46 47 -48 -49 -50 51 0
41 -49 -50 54 59 60 -61 0
41 49 -50 54 59 60 61 0
37 -46 47 78 89 0
-40 -41 -49 -50 54 -59 60 -61 0
41 -49 50 54 59 60 61 0
40 49 50 -54 -59 60 -61 0
-40 -41 49 -50 54 -59 60 61 0
40 -49 -50 -54 -59 60 -61 0
-40 -41 -49 50 -54 -59 60 -61 0
-37 -41 46 -47 48 49 50 -51 0
-37 -41 46 -47 -48 49 50 51 0
41 -49 50 54 -59 60 -61 0
-40 -41 -49 50 54 -59 60 61 0
41 -46 -47 -48 -49 50 -51 0
40 -49 50 54 -59 60 -61 0
37 -46 -47 -78 89 0
41 49 50 54 59 60 -61 0
40 -49 -50 54 -59 60 61 0
37 46 -47 -78 -89 0
41 -46 -47 -78 89 0
41 -49 50 -54 -59 60 61 0
37 -46 -47 78 -89 0
-40 -41 49 50 54 -59 60 -61 0
-40 -41 -49 50 54 59 -60 61 0
41 46 -47 -78 -89 0
41 -49 50 -54 59 60 -61 0
-40 -41 -49 50 -54 59 -60 -61 0
37 46 -47 48 49 50 51 0
-40 -41 49 50 -54 -59 60 61 0
41 -49 50 54 59 -60 -61 0
40 -49 50 -54 59 -60 61 0
40 -49 50 -54 -59 60 61 0
-40 -41 -49 50 54 -59 -60 -61 0
41 49 -50 -54 59 60 -61 0
40 -49 50 54 59 -60 -61 0
41 -49 50 -54 59 -60 61 0
18 22 -52 0
18 -22 52 0
40 -49 50 54 -59 -60 61 0
-18 22 52 0
-18 -22 -52 0
-40 -41 -49 50 -54 -59 -60 61 0
-26 -30 -38 -41 -52 -53 54 55 0
26 -30 -38 -41 52 -53 54 55 0
-26 -30 -38 -41 -52 -53 -54 -55 0
-26 30 -38 -41 52 -53 54 55 0
26 -30 -38 -41 52 -53 -54 -55 0
-26 -30 -38 -41 -52 53 54 -55 0
26 -30 38 -52 -53 54 55 0
26 -30 -38 -41 52 53 54 -55 0
26 -30 38 -52 -53 -54 -55 0
-26 -30 38 -52 53 -54 -55 0
26 -30 38 52 53 -54 -55 0
26 -30 38 -52 53 54 -55 0
26 -30 41 52 -53 -54 55 0
26 -30 38 52 -53 -54 55 0
-9 -10 11 -12 53 0
9 -10 -11 12 -53 0
-9 -10 11 12 -53 0
-9 10 -11 12 -53 0
9 -10 -11 -12 53 0
9 10 -11 12 53 0
9 10 11 12 -53 0
9 10 -11 -12 -53 0
9 -10 11 -12 -53 0
9 10 11 -12 53 0
-9 10 11 -12 -53 0
-9 -10 -11 -12 -53 0
-9 -10 -11 12 53 0
9 -10 11 12 53 0
-26 -30 -38 -41 52 -53 54 -55 0
-26 -30 38 -52 -53 -54 55 0
-9 10 -11 -12 53 0
-26 -30 41 -52 -53 -54 55 0
-13 -14 15 -16 54 0
13 -14 -15 16 -54 0
-13 -14 15 16 -54 0
-13 14 -15 16 -54 0
13 -14 -15 -16 54 0
13 14 -15 16 54 0
13 14 15 16 -54 0
13 14 -15 -16 -54 0
13 -14 15 -16 -54 0
13 14 15 -16 54 0
-13 14 15 -16 -54 0
-13 -14 -15 -16 -54 0
-13 -14 -15 16 54 0
13 -14 15 16 54 0
26 30 -38 -41 -52 53 -54 55 0
-26 -30 38 -52 -53 54 -55 0
-13 14 -15 -16 54 0
26 30 -38 -41 -52 -53 54 55 0
26 -30 41 52 53 -54 -55 0
26 -30 -38 -41 -52 -53 54 -55 0
-26 -30 38 52 53 -54 55 0
-26 30 -38 -41 52 53 -54 55 0
26 -30 41 -52 53 -54 55 0
26 -30 41 -52 53 54 -55 0
26 -30 41 -52 -53 54 55 0
26 -30 41 52 -53 54 -55 0
-26 30 -38 -41 52 -53 -54 -55 0
-26 -30 38 52 -53 -54 -55 0
26 -30 41 52 53 54 55 0
26 -30 -38 -41 -52 53 -54 -55 0
26 -30 41 -52 -53 -54 -55 0
-26 -30 41 -52 53 54 55 0
-26 30 -38 -41 -52 53 -54 -55 0
-26 30 38 52 53 54 55 0
26 -30 -38 -41 -52 -53 -54 55 0
-26 30 -38 -41 -52 -53 54 -55 0
19 23 -56 0
19 -23 56 0
-26 30 38 -52 -53 -54 -55 0
-19 23 56 0
-19 -23 -56 0
-26 30 38 -52 53 -54 55 0
27 31 -57 0
27 -31 57 0
-26 30 41 -52 53 54 -55 0
-27 31 57 0
-27 -31 -57 0
-26 30 41 -52 -53 -54 -55 0
-39 -41 53 -56 -57 -79 -90 0
-39 -41 -53 56 -57 -79 -90 0
-39 -41 53 -56 -57 79 90 0
-39 -41 -53 -56 57 -79 -90 0
-39 -41 -53 56 -57 79 90 0
-39 -41 -48 53 -56 -57 -58 0
39 48 -53 -56 -57 58 0
-39 -41 53 56 -57 79 -90 0
39 -53 56 -57 79 -90 0
41 53 56 -57 -79 -90 0
41 48 -53 56 -57 -58 0
41 -48 53 -56 -57 58 0
41 -53 -56 -57 79 90 0
41 -48 53 56 -57 -58 0
39 -53 -56 -57 79 90 0
39 -48 53 -56 -57 58 0
39 -53 56 -57 -79 90 0
39 53 -56 -57 -79 90 0
39 53 56 -57 -79 -90 0
41 -48 -53 56 -57 58 0
41 53 -56 -57 79 -90 0
41 53 56 -57 79 90 0
-39 -41 -53 56 57 -79 90 0
41 -53 56 -57 -79 90 0
41 -53 56 -57 79 -90 0
-39 -41 53 56 57 -79 -90 0
39 53 -56 -57 79 -90 0
39 53 56 -57 79 90 0
-39 -41 -53 -56 -57 -79 90 0
-39 -41 -53 56 57 79 -90 0
41 48 53 -56 -57 -58 0
-39 -41 53 56 57 79 90 0
41 48 -53 -56 -57 58 0
41 48 53 56 -57 58 0
-39 -41 53 -56 57 -79 90 0
20 24 -59 0
20 -24 59 0
-39 -41 53 56 -57 -79 90 0
-20 24 59 0
-20 -24 -59 0
-39 -41 -53 -56 57 79 90 0
28 32 -60 0
28 -32 60 0
39 -53 -56 57 -79 90 0
-28 32 60 0
-28 -32 -60 0
-39 -41 48 53 -56 57 -58 0
-40 -41 54 -59 -60 -80 -91 0
-40 -41 -54 59 -60 -80 -91 0
-40 -41 54 -59 -60 80 91 0
-40 -41 -54 -59 60 -80 -91 0
-40 -41 -54 59 -60 80 91 0
40 49 -50 -54 -59 -60 -61 0
-40 -41 -49 -50 54 59 60 61 0
-40 -41 54 59 -60 80 -91 0
40 -54 59 -60 80 -91 0
41 54 59 -60 -80 -91 0
40 -49 -50 54 -59 -60 -61 0
-40 -41 49 -50 -54 59 60 61 0
41 -54 -59 -60 80 91 0
-40 -41 49 -50 -54 -59 -60 61 0
40 -54 -59 -60 80 91 0
41 49 -50 -54 -59 -60 -61 0
40 -54 59 -60 -80 91 0
40 54 -59 -60 -80 91 0
40 54 59 -60 -80 -91 0
40 49 -50 54 -59 -60 61 0
41 54 -59 -60 80 -91 0
41 54 59 -60 80 91 0
-40 -41 -54 59 60 -80 91 0
41 -54 59 -60 -80 91 0
41 -54 59 -60 80 -91 0
-40 -41 54 59 60 -80 -91 0
40 54 -59 -60 80 -91 0
40 54 59 -60 80 91 0
-40 -41 -54 -59 -60 -80 91 0
-40 -41 -54 59 60 80 -91 0
41 -49 -50 -54 59 60 61 0
-40 -41 54 59 60 80 91 0
40 -49 -50 54 59 60 -61 0
41 -49 -50 -54 -59 -60 61 0
-40 -41 54 -59 60 -80 91 0
2 6 -62 0
2 -6 62 0
-40 -41 54 59 -60 -80 91 0
-2 6 62 0
-2 -6 -62 0
-40 -41 -54 -59 60 80 91 0
-10 -14 -34 -41 -62 -63 64 65 0
10 -14 -34 -41 62 -63 64 65 0
-10 -14 -34 -41 -62 -63 -64 -65 0
-10 14 -34 -41 62 -63 64 65 0
10 -14 -34 -41 62 -63 -64 -65 0
-10 -14 -34 -41 -62 63 64 -65 0
10 -14 34 -62 -63 64 65 0
10 -14 -34 -41 62 63 64 -65 0
10 -14 34 -62 -63 -64 -65 0
-10 -14 34 -62 63 -64 -65 0
10 -14 34 62 63 -64 -65 0
10 -14 34 -62 63 64 -65 0
10 -14 41 62 -63 -64 65 0
10 -14 34 62 -63 -64 65 0
-25 -26 27 -28 63 0
25 -26 -27 28 -63 0
-25 -26 27 28 -63 0
-25 26 -27 28 -63 0
25 -26 -27 -28 63 0
25 26 -27 28 63 0
25 26 27 28 -63 0
25 26 -27 -28 -63 0
25 -26 27 -28 -63 0
25 26 27 -28 63 0
-25 26 27 -28 -63 0
-25 -26 -27 -28 -63 0
-25 -26 -27 28 63 0
25 -26 27 28 63 0
-10 -14 -34 -41 62 -63 64 -65 0
-10 -14 34 -62 -63 -64 65 0
-25 26 -27 -28 63 0
-10 -14 41 -62 -63 -64 65 0
-29 -30 31 -32 64 0
29 -30 -31 32 -64 0
-29 -30 31 32 -64 0
-29 30 -31 32 -64 0
29 -30 -31 -32 64 0
29 30 -31 32 64 0
29 30 31 32 -64 0
29 30 -31 -32 -64 0
29 -30 31 -32 -64 0
29 30 31 -32 64 0
-29 30 31 -32 -64 0
-29 -30 -31 -32 -64 0
-29 -30 -31 32 64 0
29 -30 31 32 64 0
10 14 -34 -41 -62 63 -64 65 0
-10 -14 34 -62 -63 64 -65 0
-29 30 -31 -32 64 0
10 14 -34 -41 -62 -63 64 65 0
10 -14 41 62 63 -64 -65 0
10 -14 -34 -41 -62 -63 64 -65 0
-10 -14 34 62 63 -64 65 0
-10 14 -34 -41 62 63 -64 65 0
10 -14 41 -62 63 -64 65 0
10 -14 41 -62 63 64 -65 0
10 -14 41 -62 -63 64 65 0
10 -14 41 62 -63 64 -65 0
-10 14 -34 -41 62 -63 -64 -65 0
-10 -14 34 62 -63 -64 -65 0
10 -14 41 62 63 64 65 0
10 -14 -34 -41 -62 63 -64 -65 0
10 -14 41 -62 -63 -64 -65 0
-10 -14 41 -62 63 64 65 0
-10 14 -34 -41 -62 63 -64 -65 0
-10 14 34 62 63 64 65 0
10 -14 -34 -41 -62 -63 -64 65 0
-10 14 -34 -41 -62 -63 64 -65 0
3 7 -66 0
3 -7 66 0
-10 14 34 -62 -63 -64 -65 0
-3 7 66 0
-3 -7 -66 0
-10 14 34 -62 63 -64 65 0
-11 -15 -35 -41 -43 63 -66 67 0
11 -15 -35 -41 -43 63 66 67 0
-11 -15 -35 -41 -43 -63 -66 -67 0
-11 15 -35 -41 -43 63 66 67 0
11 -15 -35 -41 -43 -63 66 -67 0
-11 -15 -35 -41 43 63 -66 -67 0
11 -15 35 -43 63 -66 67 0
11 -15 -35 -41 43 63 66 -67 0
11 -15 35 -43 -63 -66 -67 0
-11 -15 35 43 -63 -66 -67 0
11 -15 35 43 -63 66 -67 0
11 -15 35 43 63 -66 -67 0
11 -15 41 -43 -63 66 67 0
11 -15 35 -43 -63 66 67 0
11 -15 41 43 -63 66 -67 0
11 -15 -35 -41 -43 63 -66 -67 0
-11 -15 35 43 -63 66 67 0
-11 15 -35 -41 43 -63 66 67 0
11 -15 41 43 -63 -66 67 0
11 -15 41 43 63 -66 -67 0
11 -15 41 -43 63 -66 67 0
11 -15 41 -43 63 66 -67 0
-11 15 -35 -41 -43 -63 66 -67 0
-11 -15 35 -43 -63 66 -67 0
11 -15 41 43 63 66 67 0
11 -15 -35 -41 43 -63 -66 -67 0
11 -15 41 -43 -63 -66 -67 0
-11 -15 41 43 63 -66 67 0
-11 -15 -35 -41 -43 63 66 -67 0
-11 -15 35 -43 -63 -66 67 0
11 -15 -35 -41 -43 -63 -66 67 0
-11 -15 41 -43 -63 -66 67 0
4 8 -68 0
4 -8 68 0
-11 -15 35 -43 63 -66 -67 0
-4 8 68 0
-4 -8 -68 0
-11 -15 35 -43 63 66 67 0
-12 -16 -36 -41 -44 64 -68 69 0
12 -16 -36 -41 -44 64 68 69 0
-12 -16 -36 -41 -44 -64 -68 -69 0
-12 16 -36 -41 -44 64 68 69 0
12 -16 -36 -41 -44 -64 68 -69 0
-12 -16 -36 -41 44 64 -68 -69 0
12 -16 36 -44 64 -68 69 0
12 -16 -36 -41 44 64 68 -69 0
12 -16 36 -44 -64 -68 -69 0
-12 -16 36 44 -64 -68 -69 0
12 -16 36 44 -64 68 -69 0
12 -16 36 44 64 -68 -69 0
12 -16 41 -44 -64 68 69 0
12 -16 36 -44 -64 68 69 0
12 -16 41 44 -64 68 -69 0
12 -16 -36 -41 -44 64 -68 -69 0
-12 -16 36 44 -64 68 69 0
-12 16 -36 -41 44 -64 68 69 0
12 -16 41 44 -64 -68 69 0
12 -16 41 44 64 -68 -69 0
12 -16 41 -44 64 -68 69 0
12 -16 41 -44 64 68 -69 0
-12 16 -36 -41 -44 -64 68 -69 0
-12 -16 36 -44 -64 68 -69 0
12 -16 41 44 64 68 69 0
12 -16 -36 -41 44 -64 -68 -69 0
12 -16 41 -44 -64 -68 -69 0
-12 -16 41 44 64 -68 69 0
-12 -16 -36 -41 -44 64 68 -69 0
-12 -16 36 -44 -64 -68 69 0
12 -16 -36 -41 -44 -64 -68 69 0
-12 -16 41 -44 -64 -68 69 0
-45 -69 -71 0
45 -51 55 -58 61 65 67 -69 70 0
45 51 -55 58 -61 65 67 -69 73 0
45 51 -55 -58 61 65 67 -69 72 0
-45 -67 -73 0
45 -51 55 -58 61 65 -67 69 70 0
45 51 -55 58 -61 65 -67 69 73 0
45 51 -55 -58 61 65 -67 69 72 0
-45 -65 -70 0
45 -51 55 -58 61 -65 67 69 70 0
45 51 -55 58 -61 -65 67 69 73 0
45 51 -55 -58 61 -65 67 69 72 0
-45 -65 -95 0
-45 -51 55 -58 61 65 67 69 70 0
-45 51 -55 58 -61 65 67 69 73 0
-45 51 -55 -58 61 65 67 69 72 0
45 -55 65 67 -69 89 90 -91 95 0
51 -70 0
-55 -70 0
58 -70 0
-61 -70 0
-67 -69 -71 0
45 55 65 67 -69 -89 -90 91 92 0
-45 -67 -71 0
-45 -70 92 -100 0
45 -55 -65 67 69 89 90 -91 95 0
-45 -67 -93 0
-45 -65 -71 0
-65 -67 -93 0
45 -51 55 58 -61 -65 67 69 71 0
-45 -55 65 67 69 89 -90 91 94 0
-12 16 41 44 -64 68 -69 0
-65 -70 92 -100 0
-12 16 -36 -41 44 -64 -68 -69 0
-12 16 41 -44 64 68 -69 0
-65 70 -92 -100 0
-12 16 36 44 -64 -68 69 0
-12 16 41 -44 -64 68 69 0
-12 16 41 -44 64 -68 69 0
12 16 36 -44 -64 -68 69 0
-67 -70 92 -100 0
12 16 41 -44 -64 -68 69 0
12 16 36 44 -64 -68 -69 0
-67 70 -92 -100 0
12 16 -36 -41 44 64 68 69 0
12 16 36 44 64 -68 69 0
12 16 36 -44 -64 68 -69 0
11 15 41 43 63 -66 67 0
-69 70 -92 -100 0
-69 -70 92 -100 0
-11 15 35 -43 63 66 -67 0
12 16 41 44 64 68 -69 0
-11 15 41 43 -63 66 -67 0
11 15 -35 -41 -43 63 -66 67 0
-11 15 -35 -41 -43 63 -66 -67 0
51 -71 0
-55 -71 0
-58 -71 0
61 -71 0
-67 -69 -93 0
-45 -69 -72 0
-11 15 35 43 63 -66 -67 0
-45 -71 93 -100 0
-11 15 41 43 63 -66 -67 0
-11 15 35 -43 -63 -66 -67 0
-45 71 -93 -100 0
11 15 35 -43 -63 -66 67 0
-11 15 41 -43 63 -66 67 0
11 15 41 43 -63 -66 -67 0
11 15 35 43 -63 66 67 0
11 15 41 43 -63 66 67 0
11 15 35 -43 63 66 67 0
-65 71 -93 -100 0
-10 14 41 -62 63 64 -65 0
-65 -71 93 -100 0
11 15 35 -43 -63 66 -67 0
10 14 34 -62 -63 -64 65 0
10 14 -34 -41 62 -63 -64 65 0
-67 -71 93 -100 0
10 14 34 62 -63 -64 -65 0
10 14 -34 -41 62 63 -64 -65 0
-67 71 -93 -100 0
10 14 41 62 -63 -64 -65 0
10 14 -34 -41 62 63 64 65 0
40 -54 -59 60 -80 91 0
40 -49 -50 -54 59 -60 -61 0
-69 71 -93 -100 0
-69 -71 93 -100 0
41 54 -59 60 80 91 0
-40 -41 49 -50 54 59 -60 61 0
41 -49 -50 -54 59 -60 -61 0
41 -54 -59 60 -80 91 0
37 46 -47 -48 49 50 -51 0
-51 -72 0
55 -72 0
58 -72 0
-61 -72 0
-67 -69 -95 0
-45 -69 -95 0
37 46 -47 78 89 0
41 54 59 60 -80 91 0
41 -46 -47 78 -89 0
-45 72 -94 -100 0
37 -46 -47 -48 -49 50 -51 0
-45 -72 94 -100 0
-37 -41 -46 -47 48 49 50 51 0
39 -48 53 -56 57 -58 0
41 -48 53 -56 57 -58 0
-39 -41 -53 -56 -57 79 -90 0
41 53 -56 57 79 90 0
-65 72 -94 -100 0
39 -53 56 57 -79 -90 0
-65 -72 94 -100 0
41 48 -53 -56 57 -58 0
39 53 56 57 79 -90 0
41 -53 56 57 79 90 0
41 -48 -53 56 57 -58 0
41 53 56 57 -79 90 0
-67 72 -94 -100 0
26 30 41 -52 53 -54 -55 0
-67 -72 94 -100 0
41 53 56 57 79 -90 0
26 30 -38 -41 52 53 -54 -55 0
26 30 38 52 53 54 -55 0
-69 72 -94 -100 0
-69 -72 94 -100 0
26 30 41 52 53 54 -55 0
26 30 38 52 -53 -54 -55 0
37 46 -47 -48 -49 -50 -51 0
26 30 41 52 -53 54 55 0
-37 -41 46 -47 -48 -49 -50 51 0
-51 -73 0
55 -73 0
-58 -73 0
61 -73 0
-45 -69 -94 0
41 49 50 -54 -59 60 -61 0
40 49 50 -54 59 -60 -61 0
40 49 50 54 -59 60 61 0
-45 73 -95 -100 0
-40 -41 49 50 -54 -59 -60 -61 0
-45 -73 95 -100 0
41 49 50 54 -59 60 61 0
40 49 50 54 -59 -60 -61 0
41 49 50 -54 59 60 61 0
-65 -73 95 -100 0
37 -46 -47 48 49 -50 51 0
40 49 50 54 59 60 -61 0
-65 73 -95 -100 0
-37 -41 -46 47 -48 49 50 51 0
41 46 -47 48 -49 50 -51 0
37 -46 47 48 -49 50 -51 0
37 -46 47 48 49 50 51 0
-67 -73 95 -100 0
41 -46 47 -48 -49 50 51 0
37 -46 47 -48 49 50 -51 0
-67 73 -95 -100 0
41 -46 47 48 -49 -50 51 0
41 -46 47 78 89 0
-37 -41 -46 -47 48 -49 50 -51 0
37 46 47 78 -89 0
-69 73 -95 -100 0
-69 -73 95 -100 0
37 46 47 48 49 -50 51 0
-37 -41 46 47 48 49 50 51 0
37 46 47 -48 49 50 51 0
37 46 47 -78 89 0
41 46 47 -78 89 0
-51 -55 -74 0
-45 51 55 58 -61 65 -67 69 74 0
45 51 55 58 -61 -65 67 -69 77 0
45 51 55 58 -61 -65 -67 69 76 0
51 55 58 61 -77 0
-51 -58 -74 0
-45 51 55 -58 61 65 -67 69 74 0
45 51 55 -58 61 -65 67 -69 77 0
45 51 55 -58 61 -65 -67 69 76 0
9 13 41 -42 -43 -44 45 0
-51 -61 -74 0
-45 51 -55 58 61 65 -67 69 74 0
45 51 -55 58 61 -65 67 -69 77 0
45 51 -55 58 61 -65 -67 69 76 0
-55 -61 -77 0
51 55 58 61 -75 0
-45 -51 55 58 61 65 -67 69 74 0
45 -51 55 58 61 -65 67 -69 77 0
45 -51 55 58 61 -65 -67 69 76 0
9 13 -33 -41 42 -43 44 -45 0
-51 -55 -75 0
9 13 -33 -41 42 -43 -44 45 0
41 46 47 48 -49 -50 -51 0
-58 -61 -74 0
-45 51 -55 58 61 65 67 -69 75 0
45 -74 0
-65 -74 0
67 -74 0
-69 -74 0
-51 -55 -76 0
-45 51 55 -58 61 65 67 -69 75 0
51 -89 -96 -100 0
-51 -61 -75 0
9 13 -33 -41 42 43 44 45 0
-89 -90 -96 0
-55 -74 96 -100 0
-55 -89 -99 0
51 55 58 61 -76 0
-55 -89 -97 0
-55 -61 -75 0
-55 -58 -74 0
58 -90 -96 -100 0
51 55 58 61 -74 0
41 46 47 48 49 50 -51 0
61 -91 -96 -100 0
9 13 41 42 -43 -44 -45 0
45 -75 0
-65 -75 0
-67 -75 0
69 -75 0
-51 -55 -77 0
-51 -58 -75 0
51 -89 -97 -100 0
-55 -75 97 -100 0
58 -90 -97 -100 0
-67 -69 -92 0
61 -91 -97 -100 0
-67 -69 -70 0
-45 -76 0
65 -76 0
67 -76 0
-69 -76 0
-45 51 55 58 -61 65 67 -69 75 0
-51 -58 -76 0
51 -89 -98 -100 0
-67 -69 -94 0
-55 -76 98 -100 0
-65 -69 -95 0
58 -90 -98 -100 0
-65 -69 -94 0
61 -91 -98 -100 0
-65 -69 -93 0
-45 -77 0
65 -77 0
-67 -77 0
69 -77 0
-58 -61 -77 0
-51 -58 -77 0
51 -89 -99 -100 0
-51 -77 99 -100 0
-51 -77 89 -100 0
-65 -69 -92 0
-55 -77 99 -100 0
-65 -69 -72 0
58 -90 -99 -100 0
-58 -77 99 -100 0
-65 -69 -73 0
61 -91 -99 -100 0
-65 -67 -94 0
9 13 -33 -41 -42 43 44 -45 0
-9 13 -33 -41 42 43 44 -45 0
-9 13 33 42 -43 -44 45 0
-9 -13 41 42 43 -44 45 0
-9 -13 41 -42 -43 44 -45 0
-9 -13 33 42 43 44 -45 0
-9 -13 41 42 -43 44 45 0
9 -13 -33 -41 -42 43 44 45 0
-17 18 19 20 43 0
-9 -13 33 -42 43 44 45 0
9 -13 33 42 -43 44 -45 0
-9 -13 41 -42 43 -44 -45 0
-9 -13 -33 -41 42 43 -44 -45 0
-9 -13 -33 -41 42 -43 -44 45 0
-9 -13 -33 -41 42 43 44 45 0
9 -13 33 -42 43 -44 45 0
-9 -13 33 42 -43 44 45 0
-21 22 23 24 44 0
-9 -13 41 42 -43 -44 -45 0
-9 -13 41 42 43 44 -45 0
9 13 41 -42 43 44 45 0
9 13 -33 -41 -42 -43 -44 -45 0
9 -13 -33 -41 42 43 -44 45 0
-9 13 33 42 -43 44 -45 0
-9 13 41 42 -43 44 -45 0
-9 13 33 42 43 -44 -45 0
9 -13 33 42 43 44 45 0
-9 13 41 42 43 -44 -45 0
-9 13 41 42 -43 -44 45 0
-9 13 41 42 43 44 45 0
-9 13 -33 -41 -42 -43 -44 45 0
-9 13 33 -42 -43 44 45 0
-9 13 -33 -41 -42 43 44 45 0
-9 13 33 -42 43 44 -45 0
-9 13 41 -42 43 -44 45 0
-9 13 41 -42 -43 44 45 0
-9 -13 -33 -41 -42 43 -44 45 0
9 13 33 -42 43 -44 -45 0
9 13 33 -42 -43 44 -45 0
9 13 41 -42 -43 44 -45 0
-37 -41 46 47 48 49 -50 -51 0
-37 -41 -46 47 -48 -49 50 -51 0
41 -46 -47 -48 -49 -50 51 0
-37 -41 46 -47 48 49 -50 51 0
37 -46 -47 48 -49 -50 -51 0
-45 -65 -92 0
37 46 -47 48 49 -50 -51 0
-37 -41 46 -47 -48 49 -50 -51 0
-45 -65 -93 0
-37 -41 -46 -47 -48 49 -50 51 0
-45 -55 65 67 69 89 90 -91 95 0
-45 -65 -94 0
37 46 -47 -48 49 -50 51 0
-37 -41 -46 -47 -48 -49 -50 -51 0
-65 -67 -70 0
-65 -67 -71 0
-45 55 65 67 69 -89 -90 91 92 0
37 -46 -47 -48 -49 -50 51 0
-65 -67 -72 0
-45 -67 -92 0
40 -49 50 -54 -59 -60 -61 0
41 -49 50 -54 -59 -60 -61 0
41 -49 50 54 -59 -60 61 0
40 -49 50 54 59 60 61 0
26 30 -38 -41 -52 53 54 -55 0
-26 30 -38 -41 52 53 54 -55 0
-26 30 38 52 -53 -54 55 0
-26 -30 41 52 53 -54 55 0
-26 -30 41 -52 -53 54 -55 0
-26 -30 38 52 53 54 -55 0
-26 -30 41 52 -53 54 55 0
26 -30 -38 -41 -52 53 54 55 0
-9 10 11 12 53 0
-26 -30 38 -52 53 54 55 0
26 -30 38 52 -53 54 -55 0
-26 -30 41 -52 53 -54 -55 0
-26 -30 -38 -41 52 53 -54 -55 0
-26 -30 -38 -41 52 -53 -54 55 0
-26 -30 -38 -41 52 53 54 55 0
26 -30 38 -52 53 -54 55 0
-26 -30 38 52 -53 54 55 0
-13 14 15 16 54 0
-26 -30 41 52 -53 -54 -55 0
-26 -30 41 52 53 54 -55 0
26 30 41 -52 53 54 55 0
26 30 -38 -41 -52 -53 -54 -55 0
-26 30 38 52 -53 54 -55 0
26 -30 -38 -41 52 53 -54 55 0
-26 30 41 52 -53 54 -55 0
-26 30 38 52 53 -54 -55 0
26 -30 38 52 53 54 55 0
-26 30 41 52 53 -54 -55 0
-26 30 41 52 -53 -54 55 0
-26 30 41 52 53 54 55 0
-26 30 -38 -41 -52 -53 -54 55 0
-26 30 38 -52 -53 54 55 0
-26 30 -38 -41 -52 53 54 55 0
-26 30 38 -52 53 54 -55 0
-26 30 41 -52 53 -54 55 0
-26 30 41 -52 -53 54 55 0
-26 -30 -38 -41 -52 53 -54 55 0
26 30 38 -52 53 -54 -55 0
26 30 38 -52 -53 54 -55 0
26 30 41 -52 -53 54 -55 0
-39 -41 -48 53 56 57 -58 0
-39 -41 53 -56 57 79 -90 0
41 -48 -53 -56 -57 -58 0
-39 -41 48 53 56 -57 -58 0
39 -48 -53 56 -57 58 0
39 48 53 56 -57 58 0
39 48 53 -56 -57 -58 0
-45 -67 -70 0
-39 -41 48 53 -56 -57 58 0
-39 -41 48 -53 -56 -57 -58 0
-39 -41 48 -53 56 -57 58 0
-39 -41 -48 -53 -56 -57 58 0
-39 -41 -48 -53 56 -57 -58 0
-45 -67 -94 0
41 -53 -56 -57 -79 -90 0
39 -48 -53 -56 -57 -58 0
39 48 -53 56 -57 -58 0
41 53 -56 -57 -79 90 0
-45 -67 -72 0
39 -53 -56 -57 -79 -90 0
-39 -41 -48 53 56 -57 58 0
-45 -69 -93 0
-45 -69 -70 0
39 -48 53 56 -57 -58 0
-39 -41 -48 53 -56 57 58 0
-39 -41 -48 -53 -56 57 -58 0
-39 -41 48 -53 -56 57 58 0
39 53 -56 57 -79 -90 0
39 53 -56 57 79 90 0
39 -53 -56 57 79 -90 0
39 -48 -53 -56 57 58 0
40 49 -50 -54 59 60 -61 0
-40 -41 54 -59 60 80 -91 0
40 49 -50 54 59 60 61 0
-40 -41 -49 -50 -54 -59 -60 -61 0
-40 -41 49 -50 54 -59 -60 -61 0
-45 -69 -73 0
40 -49 -50 -54 -59 -60 61 0
40 -49 -50 -54 59 60 61 0
-40 -41 -49 -50 -54 59 60 -61 0
41 -49 -50 54 -59 -60 -61 0
41 -49 -50 54 59 -60 61 0
41 49 -50 54 -59 -60 61 0
41 49 -50 54 59 -60 -61 0
-12 -16 36 -44 64 68 69 0
41 -54 -59 -60 -80 -91 0
-40 -41 49 -50 54 59 60 -61 0
-12 -16 36 -44 64 -68 -69 0
-40 -41 -49 -50 54 -59 -60 61 0
41 54 -59 -60 -80 91 0
12 -16 36 44 -64 -68 69 0
40 -54 -59 -60 -80 -91 0
40 49 -50 -54 59 -60 61 0
12 16 41 44 64 -68 69 0
-12 -16 41 44 64 68 -69 0
-45 -69 -92 0
12 16 -36 -41 44 -64 -68 69 0
41 49 -50 -54 59 -60 61 0
-12 -16 41 -44 -64 68 -69 0
12 16 -36 -41 -44 64 -68 69 0
40 49 -50 -54 -59 60 61 0
41 49 -50 54 -59 60 -61 0
41 -49 -50 54 -59 60 61 0
40 54 -59 60 -80 -91 0
10 14 -34 -41 -62 63 64 -65 0
-10 14 -34 -41 62 63 64 -65 0
-10 14 34 62 -63 -64 65 0
-10 -14 41 62 63 -64 65 0
-10 -14 41 -62 -63 64 -65 0
-10 -14 34 62 63 64 -65 0
-10 -14 41 62 -63 64 65 0
10 -14 -34 -41 -62 63 64 65 0
-25 26 27 28 63 0
-10 -14 34 -62 63 64 65 0
10 -14 34 62 -63 64 -65 0
-10 -14 41 -62 63 -64 -65 0
-10 -14 -34 -41 62 63 -64 -65 0
-10 -14 -34 -41 62 63 64 65 0
-10 -14 -34 -41 62 -63 -64 65 0
10 -14 34 -62 63 -64 65 0
-10 -14 34 62 -63 64 65 0
-29 30 31 32 64 0
-10 -14 41 62 -63 -64 -65 0
-10 -14 41 62 63 64 -65 0
10 14 41 -62 63 64 65 0
10 14 -34 -41 -62 -63 -64 -65 0
-10 14 34 62 -63 64 -65 0
10 -14 -34 -41 62 63 -64 65 0
-10 14 41 62 -63 64 -65 0
-10 14 34 62 63 -64 -65 0
10 -14 34 62 63 64 65 0
-10 14 41 62 63 -64 -65 0
-10 14 41 62 -63 -64 65 0
-10 14 41 62 63 64 65 0
-10 14 -34 -41 -62 -63 -64 65 0
-10 14 34 -62 -63 64 65 0
-10 14 -34 -41 -62 63 64 65 0
-10 14 34 -62 63 64 -65 0
-10 14 41 -62 63 -64 65 0
-10 14 41 -62 -63 64 65 0
-10 -14 -34 -41 -62 63 -64 65 0
11 15 -35 -41 43 63 -66 -67 0
-11 15 -35 -41 43 63 66 -67 0
-11 15 35 -43 -63 66 67 0
-11 -15 41 43 -63 66 67 0
-11 -15 41 -43 63 -66 -67 0
-11 -15 35 43 63 66 -67 0
-11 -15 41 -43 63 66 67 0
11 -15 -35 -41 43 63 -66 67 0
11 -15 35 43 63 66 67 0
-11 -15 35 43 63 -66 67 0
11 -15 35 -43 63 66 -67 0
-11 -15 41 43 -63 -66 -67 0
-11 -15 -35 -41 43 -63 66 -67 0
-11 -15 -35 -41 43 63 66 67 0
-11 -15 -35 -41 -43 -63 66 67 0
11 -15 35 43 -63 -66 67 0
-11 -15 41 43 63 66 -67 0
-11 -15 41 -43 -63 66 -67 0
11 15 -35 -41 43 -63 -66 67 0
12 16 -36 -41 44 64 -68 -69 0
-12 16 -36 -41 44 64 68 -69 0
-12 16 36 -44 -64 68 69 0
-12 -16 41 44 -64 68 69 0
-12 -16 41 -44 64 -68 -69 0
-12 -16 36 44 64 68 -69 0
-12 -16 41 -44 64 68 69 0
12 -16 -36 -41 44 64 -68 69 0
12 -16 36 44 64 68 69 0
-12 -16 36 44 64 -68 69 0
12 -16 36 -44 64 68 -69 0
-12 -16 41 44 -64 -68 -69 0
-12 -16 -36 -41 44 -64 68 -69 0
-12 -16 -36 -41 44 64 68 69 0
-12 -16 -36 -41 -44 -64 68 69 0
-67 -69 -72 0
-65 -67 -92 0
-65 -67 -73 0
45 55 65 -67 69 -89 -90 91 92 0
89 -92 0
-55 -92 0
90 -92 0
-91 -92 0
-67 -69 -73 0
45 -55 65 -67 69 89 90 -91 95 0
45 55 -65 67 69 -89 -90 91 92 0
45 55 -65 67 69 -89 90 -91 93 0
-45 55 65 67 69 -89 90 -91 93 0
12 -16 -36 -41 44 -64 68 69 0
-45 -65 -72 0
-45 -65 -73 0
-12 16 36 -44 64 68 -69 0
45 -55 -65 67 69 89 -90 91 94 0
-12 16 36 44 -64 68 -69 0
-12 16 -36 -41 -44 -64 -68 69 0
-12 16 41 44 64 68 69 0
-12 16 36 44 64 -68 -69 0
-12 16 41 -44 -64 -68 -69 0
-12 16 36 -44 64 -68 69 0
-12 16 -36 -41 44 64 -68 69 0
-12 16 41 44 64 -68 -69 0
-12 16 -36 -41 -44 64 -68 -69 0
-12 -16 -36 -41 44 -64 -68 69 0
12 16 -36 -41 -44 64 68 -69 0
12 16 41 -44 64 -68 -69 0
12 16 36 44 -64 68 69 0
12 16 41 -44 64 68 69 0
12 16 -36 -41 -44 -64 68 69 0
12 16 -36 -41 44 -64 68 -69 0
12 16 41 44 -64 68 69 0
12 16 41 44 -64 -68 -69 0
12 16 41 -44 -64 68 -69 0
-11 15 35 43 -63 66 -67 0
11 15 -35 -41 -43 -63 -66 -67 0
-11 15 41 43 63 66 67 0
-11 15 -35 -41 -43 -63 -66 67 0
-11 15 41 -43 63 66 -67 0
-11 15 35 43 63 66 67 0
-11 15 -35 -41 43 63 -66 67 0
11 -15 -35 -41 43 -63 66 67 0
-11 15 35 -43 63 -66 67 0
89 -93 0
-55 -93 0
-90 -93 0
91 -93 0
45 -51 55 58 -61 65 67 -69 71 0
45 -51 55 58 -61 65 -67 69 71 0
-11 -15 -35 -41 43 -63 -66 67 0
-11 15 41 43 -63 -66 67 0
11 15 41 -43 63 -66 -67 0
11 15 -35 -41 -43 63 66 -67 0
11 15 35 43 -63 -66 -67 0
11 15 35 -43 63 -66 -67 0
11 15 -35 -41 43 -63 66 -67 0
-11 15 41 -43 -63 -66 -67 0
11 15 -35 -41 -43 -63 66 67 0
11 15 41 -43 -63 66 -67 0
11 15 35 43 63 66 -67 0
10 14 34 -62 63 -64 -65 0
10 14 41 -62 -63 64 -65 0
-10 14 41 -62 -63 -64 -65 0
11 15 41 43 63 66 -67 0
10 14 41 -62 63 -64 -65 0
11 15 41 -43 63 66 67 0
10 14 41 -62 -63 -64 65 0
10 14 34 62 63 64 -65 0
10 14 34 62 -63 64 65 0
-40 -41 -49 -50 -54 59 -60 61 0
40 54 -59 60 80 91 0
10 14 41 62 63 -64 65 0
10 14 41 62 -63 64 65 0
41 49 -50 -54 -59 60 61 0
10 14 34 62 63 -64 65 0
-40 -41 -49 -50 54 59 -60 -61 0
-40 -41 49 -50 -54 59 -60 -61 0
41 54 -59 60 -80 -91 0
41 46 -47 78 89 0
40 -54 59 60 -80 -91 0
40 49 -50 54 59 -60 -61 0
40 -49 -50 54 59 -60 61 0
40 54 59 60 -80 91 0
41 -54 -59 60 80 -91 0
40 -54 59 60 80 91 0
-89 -94 0
55 -94 0
90 -94 0
-91 -94 0
45 55 65 67 -69 -89 90 -91 93 0
45 55 65 -67 69 -89 90 -91 93 0
41 -54 59 60 80 91 0
37 -46 -47 48 -49 50 51 0
41 -49 -50 -54 -59 60 -61 0
39 48 53 -56 57 58 0
-40 -41 49 -50 -54 -59 60 -61 0
41 54 59 60 80 -91 0
41 -53 -56 57 -79 90 0
41 -54 59 60 -80 -91 0
41 53 -56 57 -79 -90 0
-39 -41 48 -53 56 57 -58 0
41 -48 -53 -56 57 58 0
39 -53 56 57 79 90 0
39 48 -53 56 57 58 0
-39 -41 48 53 56 57 58 0
-39 -41 -48 -53 56 57 58 0
39 -48 -53 56 57 -58 0
41 48 53 -56 57 58 0
39 48 53 56 57 -58 0
41 48 53 56 57 -58 0
41 -48 53 56 57 58 0
26 30 -38 -41 52 -53 54 -55 0
26 30 -38 -41 52 53 54 55 0
26 30 38 -52 53 54 55 0
26 30 38 -52 -53 -54 55 0
26 30 38 52 -53 54 55 0
41 48 -53 56 57 58 0
26 30 38 52 53 -54 55 0
-40 -41 -49 50 54 59 60 -61 0
26 30 41 52 53 -54 55 0
-37 -41 -46 -47 48 -49 -50 51 0
-37 -41 46 -47 48 -49 -50 -51 0
40 -49 50 -54 59 60 -61 0
-40 -41 -49 50 -54 59 60 61 0
37 -46 -47 48 49 50 -51 0
26 30 41 52 -53 -54 -55 0
37 46 -47 48 -49 -50 51 0
-89 -95 0
55 -95 0
-90 -95 0
91 -95 0
45 -55 65 67 -69 89 -90 91 94 0
45 -55 65 -67 69 89 -90 91 94 0
40 49 50 54 59 -60 61 0
-40 -41 49 50 -54 59 -60 61 0
40 49 50 -54 -59 -60 61 0
41 49 50 54 -59 -60 -61 0
41 49 50 54 59 -60 61 0
41 49 50 -54 59 -60 -61 0
-40 -41 49 50 -54 59 60 -61 0
-40 -41 49 50 54 59 -60 -61 0
-40 -41 49 50 54 59 60 61 0
37 46 -47 -48 -49 50 51 0
41 -46 -47 48 49 -50 51 0
37 -46 47 -78 -89 0
37 -46 47 48 49 -50 -51 0
41 -46 -47 -48 49 -50 -51 0
41 46 -47 -48 -49 50 51 0
37 -46 47 -48 49 -50 51 0
37 46 -47 48 -49 50 -51 0
37 -46 47 -48 -49 -50 -51 0
41 -46 47 48 49 -50 -51 0
41 -46 47 -78 -89 0
41 -46 47 48 49 50 51 0
-37 -41 46 47 -48 -49 -50 -51 0
41 -46 47 -48 -49 -50 -51 0
41 -46 47 -48 49 -50 51 0
-37 -41 46 47 48 -49 -50 51 0
41 -46 47 48 -49 50 -51 0
-37 -41 46 47 -48 49 50 -51 0
37 46 47 -48 49 -50 -51 0
37 46 47 48 -49 50 51 0
41 46 47 78 -89 0
41 46 47 -48 -49 50 -51 0
37 46 47 48 -49 -50 -51 0
37 46 47 -48 -49 -50 51 0
41 46 47 48 49 -50 51 0
37 46 47 -48 -49 50 -51 0
41 46 47 -48 49 -50 -51 0
-55 -90 -96 0
-45 55 65 -67 69 89 90 -91 96 0
45 55 -65 67 -69 89 90 -91 99 0
45 55 -65 -67 69 89 90 -91 98 0
55 89 90 91 -96 0
-55 -91 -96 0
-45 55 65 -67 69 89 -90 91 96 0
45 55 -65 67 -69 89 -90 91 99 0
45 55 -65 -67 69 89 -90 91 98 0
-90 -91 -96 0
9 13 33 -42 43 44 45 0
-45 -55 65 -67 69 89 90 91 96 0
45 -55 -65 67 -69 89 90 91 99 0
45 -55 -65 -67 69 89 90 91 98 0
-55 -89 -98 0
-90 -91 -99 0
-45 55 65 -67 69 -89 90 91 96 0
45 55 -65 67 -69 -89 90 91 99 0
45 55 -65 -67 69 -89 90 91 98 0
-55 -61 -74 0
-55 -90 -97 0
-55 -58 -76 0
41 46 47 -48 49 50 51 0
55 89 90 91 -98 0
-45 -55 65 67 -69 89 90 91 97 0
45 -96 0
-65 -96 0
67 -96 0
-69 -96 0
-55 -90 -98 0
-45 55 65 67 -69 89 -90 91 97 0
74 -89 -96 -100 0
9 13 33 42 -43 -44 -45 0
-51 -74 89 -100 0
-58 -61 -76 0
-51 -61 -76 0
-51 -61 -77 0
-55 -58 -77 0
-51 -74 96 -100 0
-45 55 65 67 -69 -89 90 91 97 0
-89 -90 -99 0
9 13 33 42 43 -44 45 0
-90 -91 -97 0
-89 -90 -97 0
55 89 90 91 -99 0
-89 -90 -98 0
9 13 33 -42 -43 -44 45 0
55 89 90 91 -97 0
-89 -91 -98 0
9 13 41 -42 43 -44 -45 0
-58 -74 90 -100 0
-58 -61 -75 0
-89 -91 -96 0
-89 -91 -97 0
9 13 -33 -41 42 43 -44 -45 0
74 -90 -96 -100 0
-58 -74 96 -100 0
9 13 33 42 43 44 -45 0
74 -91 -96 -100 0
-61 -74 91 -100 0
9 13 41 42 43 -44 45 0
9 13 41 42 -43 44 45 0
-61 -74 96 -100 0
45 -97 0
-65 -97 0
-67 -97 0
69 -97 0
-55 -90 -99 0
-55 -91 -97 0
-51 -75 89 -100 0
75 -89 -97 -100 0
-51 -75 97 -100 0
75 -90 -97 -100 0
-58 -75 90 -100 0
-58 -75 97 -100 0
-61 -75 91 -100 0
75 -91 -97 -100 0
-61 -75 97 -100 0
-45 -98 0
65 -98 0
67 -98 0
-69 -98 0
-45 55 65 67 -69 89 90 -91 97 0
-55 -91 -98 0
-51 -76 89 -100 0
76 -89 -98 -100 0
-51 -76 98 -100 0
76 -90 -98 -100 0
-58 -76 90 -100 0
-58 -76 98 -100 0
76 -91 -98 -100 0
-61 -76 91 -100 0
-61 -76 98 -100 0
-45 -99 0
65 -99 0
-67 -99 0
69 -99 0
9 13 33 42 -43 44 45 0
-55 -91 -99 0
-65 -69 -71 0
77 -89 -99 -100 0
-65 -69 -70 0
-58 -77 90 -100 0
77 -90 -99 -100 0
-65 -67 -95 0
-61 -77 91 -100 0
-61 -77 99 -100 0
12 16 -36 -41 -44 -64 -68 -69 0
-45 -67 -95 0
-45 -51 55 58 -61 65 67 69 71 0
-45 70 -92 -100 0
-12 16 41 44 -64 -68 69 0
-12 16 36 44 64 68 69 0
-12 16 36 -44 -64 -68 -69 0
12 16 36 44 64 68 -69 0
12 16 36 -44 64 -68 -69 0
12 16 36 -44 64 68 69 0
-11 15 -35 -41 43 -63 -66 -67 0
-11 15 41 -43 -63 66 67 0
11 15 41 -43 -63 -66 67 0
-11 15 35 43 -63 -66 67 0
11 15 35 43 63 -66 67 0
10 14 34 -62 63 64 65 0
11 15 -35 -41 43 63 66 67 0
10 14 34 -62 -63 64 -65 0
40 -54 -59 60 80 -91 0
10 14 -34 -41 62 -63 64 -65 0
10 14 41 62 63 64 -65 0
41 -46 -47 48 -49 50 51 0
-40 -41 -54 -59 -60 80 -91 0
39 48 -53 -56 57 -58 0
40 54 59 60 80 -91 0
40 49 -50 54 -59 60 -61 0
39 -48 53 56 57 58 0
41 -53 -56 57 79 -90 0
39 53 56 57 -79 90 0
26 30 -38 -41 52 -53 -54 55 0
41 -53 56 57 -79 -90 0
26 30 41 -52 -53 -54 55 0
-37 -41 -46 -47 -48 49 50 -51 0
37 -46 -47 -48 49 50 51 0
41 49 50 -54 -59 -60 61 0
-40 -41 -49 -50 -54 -59 60 61 0
-40 -41 49 50 54 -59 -60 61 0
37 -46 47 -48 -49 50 51 0
40 49 50 -54 59 60 61 0
-37 -41 -46 47 48 49 50 -51 0
-37 -41 46 47 -48 49 -50 51 0
37 -46 47 48 -49 -50 51 0
41 -46 47 -48 49 50 -51 0
41 46 47 48 -49 50 51 0
37 46 47 48 49 50 -51 0
-55 -58 -75 0
-45 -51 55 58 61 65 67 -69 75 0
-90 -91 -98 0
-55 -61 -76 0
-55 -89 -96 0
-55 74 -96 -100 0
41 46 47 -48 -49 -50 51 0
-89 -91 -99 0
9 13 41 42 43 44 -45 0
-55 75 -97 -100 0
-55 76 -98 -100 0
-55 77 -99 -100 0
77 -91 -99 -100 0
-1 -81 -101 0
1 81 -101 0
-2 -82 -102 0
2 82 -102 0
-3 -83 -103 0
3 83 -103 0
-4 -84 -104 0
4 84 -104 0
-5 -6 -7 8 -85 -86 -87 88 100 101 102 103 104 0
5 -6 7 8 85 -86 87 88 100 101 102 103 104 0
-5 -6 7 -8 -85 -86 87 -88 100 101 102 103 104 0
-5 -6 -7 -8 -85 -86 -87 -88 100 101 102 103 104 0
-5 6 -7 -8 -85 86 -87 -88 100 101 102 103 104 0
5 -6 7 -8 85 -86 87 -88 100 101 102 103 104 0
-5 6 -7 8 -85 86 -87 88 100 101 102 103 104 0
-5 -6 7 8 -85 -86 87 88 100 101 102 103 104 0
-5 6 7 8 -85 86 87 88 100 101 102 103 104 0
5 6 -7 8 85 86 -87 88 100 101 102 103 104 0
5 -6 -7 -8 85 -86 -87 -88 100 101 102 103 104 0
-5 6 7 -8 -85 86 87 -88 100 101 102 103 104 0
5 6 -7 -8 85 86 -87 -88 100 101 102 103 104 0
5 6 7 -8 85 86 87 -88 100 101 102 103 104 0
5 -6 -7 8 85 -86 -87 88 100 101 102 103 104 0
5 6 7 8 85 86 87 88 100 101 102 103 104 0
